p cnf 410 3200
-1 -141 0
-1 -142 0
141 -141 0
142 -142 0
-15 -151 0
-15 -152 0
151 -151 0
152 -152 0
-29 -161 0
-29 -162 0
161 -161 0
162 -162 0
-43 -171 0
-43 -172 0
171 -171 0
172 -172 0
-57 -181 0
-57 -182 0
181 -181 0
182 -182 0
-71 -191 0
-71 -192 0
191 -191 0
192 -192 0
-85 -201 0
-85 -202 0
201 -201 0
202 -202 0
-99 -211 0
-99 -212 0
211 -211 0
212 -212 0
-113 -221 0
-113 -222 0
221 -221 0
222 -222 0
-127 -231 0
-127 -232 0
231 -231 0
232 -232 0
2 -141 0
2 -142 0
141 -141 0
142 -142 0
16 -151 0
16 -152 0
151 -151 0
152 -152 0
30 -161 0
30 -162 0
161 -161 0
162 -162 0
44 -171 0
44 -172 0
171 -171 0
172 -172 0
58 -181 0
58 -182 0
181 -181 0
182 -182 0
72 -191 0
72 -192 0
191 -191 0
192 -192 0
86 -201 0
86 -202 0
201 -201 0
202 -202 0
100 -211 0
100 -212 0
211 -211 0
212 -212 0
114 -221 0
114 -222 0
221 -221 0
222 -222 0
128 -231 0
128 -232 0
231 -231 0
232 -232 0
3 -141 0
3 -142 0
141 -141 0
142 -142 0
17 -151 0
17 -152 0
151 -151 0
152 -152 0
31 -161 0
31 -162 0
161 -161 0
162 -162 0
45 -171 0
45 -172 0
171 -171 0
172 -172 0
59 -181 0
59 -182 0
181 -181 0
182 -182 0
73 -191 0
73 -192 0
191 -191 0
192 -192 0
87 -201 0
87 -202 0
201 -201 0
202 -202 0
101 -211 0
101 -212 0
211 -211 0
212 -212 0
115 -221 0
115 -222 0
221 -221 0
222 -222 0
129 -231 0
129 -232 0
231 -231 0
232 -232 0
4 -241 -141 0
-4 241 -141 0
4 241 -142 0
-4 -241 -142 0
18 -241 -151 0
-18 241 -151 0
18 241 -152 0
-18 -241 -152 0
32 -241 -161 0
-32 241 -161 0
32 241 -162 0
-32 -241 -162 0
46 -241 -171 0
-46 241 -171 0
46 241 -172 0
-46 -241 -172 0
60 -241 -181 0
-60 241 -181 0
60 241 -182 0
-60 -241 -182 0
74 -241 -191 0
-74 241 -191 0
74 241 -192 0
-74 -241 -192 0
88 -241 -201 0
-88 241 -201 0
88 241 -202 0
-88 -241 -202 0
102 -241 -211 0
-102 241 -211 0
102 241 -212 0
-102 -241 -212 0
116 -241 -221 0
-116 241 -221 0
116 241 -222 0
-116 -241 -222 0
130 -241 -231 0
-130 241 -231 0
130 241 -232 0
-130 -241 -232 0
5 -141 0
5 -142 0
141 -141 0
142 -142 0
19 -151 0
19 -152 0
151 -151 0
152 -152 0
33 -161 0
33 -162 0
161 -161 0
162 -162 0
47 -171 0
47 -172 0
171 -171 0
172 -172 0
61 -181 0
61 -182 0
181 -181 0
182 -182 0
75 -191 0
75 -192 0
191 -191 0
192 -192 0
89 -201 0
89 -202 0
201 -201 0
202 -202 0
103 -211 0
103 -212 0
211 -211 0
212 -212 0
117 -221 0
117 -222 0
221 -221 0
222 -222 0
131 -231 0
131 -232 0
231 -231 0
232 -232 0
-6 -141 0
-6 -142 0
141 -141 0
142 -142 0
-20 -151 0
-20 -152 0
151 -151 0
152 -152 0
-34 -161 0
-34 -162 0
161 -161 0
162 -162 0
-48 -171 0
-48 -172 0
171 -171 0
172 -172 0
-62 -181 0
-62 -182 0
181 -181 0
182 -182 0
-76 -191 0
-76 -192 0
191 -191 0
192 -192 0
-90 -201 0
-90 -202 0
201 -201 0
202 -202 0
-104 -211 0
-104 -212 0
211 -211 0
212 -212 0
-118 -221 0
-118 -222 0
221 -221 0
222 -222 0
-132 -231 0
-132 -232 0
231 -231 0
232 -232 0
7 -141 0
7 -142 0
141 -141 0
142 -142 0
21 -151 0
21 -152 0
151 -151 0
152 -152 0
35 -161 0
35 -162 0
161 -161 0
162 -162 0
49 -171 0
49 -172 0
171 -171 0
172 -172 0
63 -181 0
63 -182 0
181 -181 0
182 -182 0
77 -191 0
77 -192 0
191 -191 0
192 -192 0
91 -201 0
91 -202 0
201 -201 0
202 -202 0
105 -211 0
105 -212 0
211 -211 0
212 -212 0
119 -221 0
119 -222 0
221 -221 0
222 -222 0
133 -231 0
133 -232 0
231 -231 0
232 -232 0
8 -242 -141 0
-8 242 -141 0
8 242 -142 0
-8 -242 -142 0
22 -242 -151 0
-22 242 -151 0
22 242 -152 0
-22 -242 -152 0
36 -242 -161 0
-36 242 -161 0
36 242 -162 0
-36 -242 -162 0
50 -242 -171 0
-50 242 -171 0
50 242 -172 0
-50 -242 -172 0
64 -242 -181 0
-64 242 -181 0
64 242 -182 0
-64 -242 -182 0
78 -242 -191 0
-78 242 -191 0
78 242 -192 0
-78 -242 -192 0
92 -242 -201 0
-92 242 -201 0
92 242 -202 0
-92 -242 -202 0
106 -242 -211 0
-106 242 -211 0
106 242 -212 0
-106 -242 -212 0
120 -242 -221 0
-120 242 -221 0
120 242 -222 0
-120 -242 -222 0
134 -242 -231 0
-134 242 -231 0
134 242 -232 0
-134 -242 -232 0
-9 -141 0
-9 -142 0
141 -141 0
142 -142 0
-23 -151 0
-23 -152 0
151 -151 0
152 -152 0
-37 -161 0
-37 -162 0
161 -161 0
162 -162 0
-51 -171 0
-51 -172 0
171 -171 0
172 -172 0
-65 -181 0
-65 -182 0
181 -181 0
182 -182 0
-79 -191 0
-79 -192 0
191 -191 0
192 -192 0
-93 -201 0
-93 -202 0
201 -201 0
202 -202 0
-107 -211 0
-107 -212 0
211 -211 0
212 -212 0
-121 -221 0
-121 -222 0
221 -221 0
222 -222 0
-135 -231 0
-135 -232 0
231 -231 0
232 -232 0
10 -243 -141 0
-10 243 -141 0
10 243 -142 0
-10 -243 -142 0
24 -243 -151 0
-24 243 -151 0
24 243 -152 0
-24 -243 -152 0
38 -243 -161 0
-38 243 -161 0
38 243 -162 0
-38 -243 -162 0
52 -243 -171 0
-52 243 -171 0
52 243 -172 0
-52 -243 -172 0
66 -243 -181 0
-66 243 -181 0
66 243 -182 0
-66 -243 -182 0
80 -243 -191 0
-80 243 -191 0
80 243 -192 0
-80 -243 -192 0
94 -243 -201 0
-94 243 -201 0
94 243 -202 0
-94 -243 -202 0
108 -243 -211 0
-108 243 -211 0
108 243 -212 0
-108 -243 -212 0
122 -243 -221 0
-122 243 -221 0
122 243 -222 0
-122 -243 -222 0
136 -243 -231 0
-136 243 -231 0
136 243 -232 0
-136 -243 -232 0
11 -244 -141 0
-11 244 -141 0
11 244 -142 0
-11 -244 -142 0
25 -244 -151 0
-25 244 -151 0
25 244 -152 0
-25 -244 -152 0
39 -244 -161 0
-39 244 -161 0
39 244 -162 0
-39 -244 -162 0
53 -244 -171 0
-53 244 -171 0
53 244 -172 0
-53 -244 -172 0
67 -244 -181 0
-67 244 -181 0
67 244 -182 0
-67 -244 -182 0
81 -244 -191 0
-81 244 -191 0
81 244 -192 0
-81 -244 -192 0
95 -244 -201 0
-95 244 -201 0
95 244 -202 0
-95 -244 -202 0
109 -244 -211 0
-109 244 -211 0
109 244 -212 0
-109 -244 -212 0
123 -244 -221 0
-123 244 -221 0
123 244 -222 0
-123 -244 -222 0
137 -244 -231 0
-137 244 -231 0
137 244 -232 0
-137 -244 -232 0
12 -141 0
12 -142 0
141 -141 0
142 -142 0
26 -151 0
26 -152 0
151 -151 0
152 -152 0
40 -161 0
40 -162 0
161 -161 0
162 -162 0
54 -171 0
54 -172 0
171 -171 0
172 -172 0
68 -181 0
68 -182 0
181 -181 0
182 -182 0
82 -191 0
82 -192 0
191 -191 0
192 -192 0
96 -201 0
96 -202 0
201 -201 0
202 -202 0
110 -211 0
110 -212 0
211 -211 0
212 -212 0
124 -221 0
124 -222 0
221 -221 0
222 -222 0
138 -231 0
138 -232 0
231 -231 0
232 -232 0
13 -245 -141 0
-13 245 -141 0
13 245 -142 0
-13 -245 -142 0
27 -245 -151 0
-27 245 -151 0
27 245 -152 0
-27 -245 -152 0
41 -245 -161 0
-41 245 -161 0
41 245 -162 0
-41 -245 -162 0
55 -245 -171 0
-55 245 -171 0
55 245 -172 0
-55 -245 -172 0
69 -245 -181 0
-69 245 -181 0
69 245 -182 0
-69 -245 -182 0
83 -245 -191 0
-83 245 -191 0
83 245 -192 0
-83 -245 -192 0
97 -245 -201 0
-97 245 -201 0
97 245 -202 0
-97 -245 -202 0
111 -245 -211 0
-111 245 -211 0
111 245 -212 0
-111 -245 -212 0
125 -245 -221 0
-125 245 -221 0
125 245 -222 0
-125 -245 -222 0
139 -245 -231 0
-139 245 -231 0
139 245 -232 0
-139 -245 -232 0
14 -246 -141 0
-14 246 -141 0
14 246 -142 0
-14 -246 -142 0
28 -246 -151 0
-28 246 -151 0
28 246 -152 0
-28 -246 -152 0
42 -246 -161 0
-42 246 -161 0
42 246 -162 0
-42 -246 -162 0
56 -246 -171 0
-56 246 -171 0
56 246 -172 0
-56 -246 -172 0
70 -246 -181 0
-70 246 -181 0
70 246 -182 0
-70 -246 -182 0
84 -246 -191 0
-84 246 -191 0
84 246 -192 0
-84 -246 -192 0
98 -246 -201 0
-98 246 -201 0
98 246 -202 0
-98 -246 -202 0
112 -246 -211 0
-112 246 -211 0
112 246 -212 0
-112 -246 -212 0
126 -246 -221 0
-126 246 -221 0
126 246 -222 0
-126 -246 -222 0
140 -246 -231 0
-140 246 -231 0
140 246 -232 0
-140 -246 -232 0
-311 141 0
311 -141 0
-312 142 0
311 -142 0
-311 -141 0
-312 -142 0
-321 141 311 0
321 -141 0
321 -311 0
-322 142 312 0
322 -142 0
322 -312 0
-321 -151 0
-322 -152 0
-331 151 321 0
331 -151 0
331 -321 0
-332 152 322 0
332 -152 0
332 -322 0
-331 -161 0
-332 -162 0
-341 161 331 0
341 -161 0
341 -331 0
-342 162 332 0
342 -162 0
342 -332 0
-341 -171 0
-342 -172 0
-351 171 341 0
351 -171 0
351 -341 0
-352 172 342 0
352 -172 0
352 -342 0
-351 -181 0
-352 -182 0
-361 181 351 0
361 -181 0
361 -351 0
-362 182 352 0
362 -182 0
362 -352 0
-361 -191 0
-362 -192 0
-371 191 361 0
371 -191 0
371 -361 0
-372 192 362 0
372 -192 0
372 -362 0
-371 -201 0
-372 -202 0
-381 201 371 0
381 -201 0
381 -371 0
-382 202 372 0
382 -202 0
382 -372 0
-381 -211 0
-382 -212 0
-391 211 381 0
391 -211 0
391 -381 0
-392 212 382 0
392 -212 0
392 -382 0
-391 -221 0
-392 -222 0
-401 221 391 0
401 -221 0
401 -391 0
-402 222 392 0
402 -222 0
402 -392 0
-401 -231 0
-402 -232 0
401 0
402 0
1 -247 -143 0
-1 247 -143 0
1 247 -144 0
-1 -247 -144 0
15 -247 -153 0
-15 247 -153 0
15 247 -154 0
-15 -247 -154 0
29 -247 -163 0
-29 247 -163 0
29 247 -164 0
-29 -247 -164 0
43 -247 -173 0
-43 247 -173 0
43 247 -174 0
-43 -247 -174 0
57 -247 -183 0
-57 247 -183 0
57 247 -184 0
-57 -247 -184 0
71 -247 -193 0
-71 247 -193 0
71 247 -194 0
-71 -247 -194 0
85 -247 -203 0
-85 247 -203 0
85 247 -204 0
-85 -247 -204 0
99 -247 -213 0
-99 247 -213 0
99 247 -214 0
-99 -247 -214 0
113 -247 -223 0
-113 247 -223 0
113 247 -224 0
-113 -247 -224 0
127 -247 -233 0
-127 247 -233 0
127 247 -234 0
-127 -247 -234 0
2 -143 0
2 -144 0
143 -143 0
144 -144 0
16 -153 0
16 -154 0
153 -153 0
154 -154 0
30 -163 0
30 -164 0
163 -163 0
164 -164 0
44 -173 0
44 -174 0
173 -173 0
174 -174 0
58 -183 0
58 -184 0
183 -183 0
184 -184 0
72 -193 0
72 -194 0
193 -193 0
194 -194 0
86 -203 0
86 -204 0
203 -203 0
204 -204 0
100 -213 0
100 -214 0
213 -213 0
214 -214 0
114 -223 0
114 -224 0
223 -223 0
224 -224 0
128 -233 0
128 -234 0
233 -233 0
234 -234 0
3 -143 0
3 -144 0
143 -143 0
144 -144 0
17 -153 0
17 -154 0
153 -153 0
154 -154 0
31 -163 0
31 -164 0
163 -163 0
164 -164 0
45 -173 0
45 -174 0
173 -173 0
174 -174 0
59 -183 0
59 -184 0
183 -183 0
184 -184 0
73 -193 0
73 -194 0
193 -193 0
194 -194 0
87 -203 0
87 -204 0
203 -203 0
204 -204 0
101 -213 0
101 -214 0
213 -213 0
214 -214 0
115 -223 0
115 -224 0
223 -223 0
224 -224 0
129 -233 0
129 -234 0
233 -233 0
234 -234 0
4 -143 0
4 -144 0
143 -143 0
144 -144 0
18 -153 0
18 -154 0
153 -153 0
154 -154 0
32 -163 0
32 -164 0
163 -163 0
164 -164 0
46 -173 0
46 -174 0
173 -173 0
174 -174 0
60 -183 0
60 -184 0
183 -183 0
184 -184 0
74 -193 0
74 -194 0
193 -193 0
194 -194 0
88 -203 0
88 -204 0
203 -203 0
204 -204 0
102 -213 0
102 -214 0
213 -213 0
214 -214 0
116 -223 0
116 -224 0
223 -223 0
224 -224 0
130 -233 0
130 -234 0
233 -233 0
234 -234 0
5 -248 -143 0
-5 248 -143 0
5 248 -144 0
-5 -248 -144 0
19 -248 -153 0
-19 248 -153 0
19 248 -154 0
-19 -248 -154 0
33 -248 -163 0
-33 248 -163 0
33 248 -164 0
-33 -248 -164 0
47 -248 -173 0
-47 248 -173 0
47 248 -174 0
-47 -248 -174 0
61 -248 -183 0
-61 248 -183 0
61 248 -184 0
-61 -248 -184 0
75 -248 -193 0
-75 248 -193 0
75 248 -194 0
-75 -248 -194 0
89 -248 -203 0
-89 248 -203 0
89 248 -204 0
-89 -248 -204 0
103 -248 -213 0
-103 248 -213 0
103 248 -214 0
-103 -248 -214 0
117 -248 -223 0
-117 248 -223 0
117 248 -224 0
-117 -248 -224 0
131 -248 -233 0
-131 248 -233 0
131 248 -234 0
-131 -248 -234 0
-6 -143 0
-6 -144 0
143 -143 0
144 -144 0
-20 -153 0
-20 -154 0
153 -153 0
154 -154 0
-34 -163 0
-34 -164 0
163 -163 0
164 -164 0
-48 -173 0
-48 -174 0
173 -173 0
174 -174 0
-62 -183 0
-62 -184 0
183 -183 0
184 -184 0
-76 -193 0
-76 -194 0
193 -193 0
194 -194 0
-90 -203 0
-90 -204 0
203 -203 0
204 -204 0
-104 -213 0
-104 -214 0
213 -213 0
214 -214 0
-118 -223 0
-118 -224 0
223 -223 0
224 -224 0
-132 -233 0
-132 -234 0
233 -233 0
234 -234 0
7 -249 -143 0
-7 249 -143 0
7 249 -144 0
-7 -249 -144 0
21 -249 -153 0
-21 249 -153 0
21 249 -154 0
-21 -249 -154 0
35 -249 -163 0
-35 249 -163 0
35 249 -164 0
-35 -249 -164 0
49 -249 -173 0
-49 249 -173 0
49 249 -174 0
-49 -249 -174 0
63 -249 -183 0
-63 249 -183 0
63 249 -184 0
-63 -249 -184 0
77 -249 -193 0
-77 249 -193 0
77 249 -194 0
-77 -249 -194 0
91 -249 -203 0
-91 249 -203 0
91 249 -204 0
-91 -249 -204 0
105 -249 -213 0
-105 249 -213 0
105 249 -214 0
-105 -249 -214 0
119 -249 -223 0
-119 249 -223 0
119 249 -224 0
-119 -249 -224 0
133 -249 -233 0
-133 249 -233 0
133 249 -234 0
-133 -249 -234 0
8 -143 0
8 -144 0
143 -143 0
144 -144 0
22 -153 0
22 -154 0
153 -153 0
154 -154 0
36 -163 0
36 -164 0
163 -163 0
164 -164 0
50 -173 0
50 -174 0
173 -173 0
174 -174 0
64 -183 0
64 -184 0
183 -183 0
184 -184 0
78 -193 0
78 -194 0
193 -193 0
194 -194 0
92 -203 0
92 -204 0
203 -203 0
204 -204 0
106 -213 0
106 -214 0
213 -213 0
214 -214 0
120 -223 0
120 -224 0
223 -223 0
224 -224 0
134 -233 0
134 -234 0
233 -233 0
234 -234 0
-9 -143 0
-9 -144 0
143 -143 0
144 -144 0
-23 -153 0
-23 -154 0
153 -153 0
154 -154 0
-37 -163 0
-37 -164 0
163 -163 0
164 -164 0
-51 -173 0
-51 -174 0
173 -173 0
174 -174 0
-65 -183 0
-65 -184 0
183 -183 0
184 -184 0
-79 -193 0
-79 -194 0
193 -193 0
194 -194 0
-93 -203 0
-93 -204 0
203 -203 0
204 -204 0
-107 -213 0
-107 -214 0
213 -213 0
214 -214 0
-121 -223 0
-121 -224 0
223 -223 0
224 -224 0
-135 -233 0
-135 -234 0
233 -233 0
234 -234 0
10 -250 -143 0
-10 250 -143 0
10 250 -144 0
-10 -250 -144 0
24 -250 -153 0
-24 250 -153 0
24 250 -154 0
-24 -250 -154 0
38 -250 -163 0
-38 250 -163 0
38 250 -164 0
-38 -250 -164 0
52 -250 -173 0
-52 250 -173 0
52 250 -174 0
-52 -250 -174 0
66 -250 -183 0
-66 250 -183 0
66 250 -184 0
-66 -250 -184 0
80 -250 -193 0
-80 250 -193 0
80 250 -194 0
-80 -250 -194 0
94 -250 -203 0
-94 250 -203 0
94 250 -204 0
-94 -250 -204 0
108 -250 -213 0
-108 250 -213 0
108 250 -214 0
-108 -250 -214 0
122 -250 -223 0
-122 250 -223 0
122 250 -224 0
-122 -250 -224 0
136 -250 -233 0
-136 250 -233 0
136 250 -234 0
-136 -250 -234 0
11 -143 0
11 -144 0
143 -143 0
144 -144 0
25 -153 0
25 -154 0
153 -153 0
154 -154 0
39 -163 0
39 -164 0
163 -163 0
164 -164 0
53 -173 0
53 -174 0
173 -173 0
174 -174 0
67 -183 0
67 -184 0
183 -183 0
184 -184 0
81 -193 0
81 -194 0
193 -193 0
194 -194 0
95 -203 0
95 -204 0
203 -203 0
204 -204 0
109 -213 0
109 -214 0
213 -213 0
214 -214 0
123 -223 0
123 -224 0
223 -223 0
224 -224 0
137 -233 0
137 -234 0
233 -233 0
234 -234 0
12 -143 0
12 -144 0
143 -143 0
144 -144 0
26 -153 0
26 -154 0
153 -153 0
154 -154 0
40 -163 0
40 -164 0
163 -163 0
164 -164 0
54 -173 0
54 -174 0
173 -173 0
174 -174 0
68 -183 0
68 -184 0
183 -183 0
184 -184 0
82 -193 0
82 -194 0
193 -193 0
194 -194 0
96 -203 0
96 -204 0
203 -203 0
204 -204 0
110 -213 0
110 -214 0
213 -213 0
214 -214 0
124 -223 0
124 -224 0
223 -223 0
224 -224 0
138 -233 0
138 -234 0
233 -233 0
234 -234 0
13 -143 0
13 -144 0
143 -143 0
144 -144 0
27 -153 0
27 -154 0
153 -153 0
154 -154 0
41 -163 0
41 -164 0
163 -163 0
164 -164 0
55 -173 0
55 -174 0
173 -173 0
174 -174 0
69 -183 0
69 -184 0
183 -183 0
184 -184 0
83 -193 0
83 -194 0
193 -193 0
194 -194 0
97 -203 0
97 -204 0
203 -203 0
204 -204 0
111 -213 0
111 -214 0
213 -213 0
214 -214 0
125 -223 0
125 -224 0
223 -223 0
224 -224 0
139 -233 0
139 -234 0
233 -233 0
234 -234 0
14 -143 0
14 -144 0
143 -143 0
144 -144 0
28 -153 0
28 -154 0
153 -153 0
154 -154 0
42 -163 0
42 -164 0
163 -163 0
164 -164 0
56 -173 0
56 -174 0
173 -173 0
174 -174 0
70 -183 0
70 -184 0
183 -183 0
184 -184 0
84 -193 0
84 -194 0
193 -193 0
194 -194 0
98 -203 0
98 -204 0
203 -203 0
204 -204 0
112 -213 0
112 -214 0
213 -213 0
214 -214 0
126 -223 0
126 -224 0
223 -223 0
224 -224 0
140 -233 0
140 -234 0
233 -233 0
234 -234 0
-313 143 0
313 -143 0
-314 144 0
313 -144 0
-313 -143 0
-314 -144 0
-323 143 313 0
323 -143 0
323 -313 0
-324 144 314 0
324 -144 0
324 -314 0
-323 -153 0
-324 -154 0
-333 153 323 0
333 -153 0
333 -323 0
-334 154 324 0
334 -154 0
334 -324 0
-333 -163 0
-334 -164 0
-343 163 333 0
343 -163 0
343 -333 0
-344 164 334 0
344 -164 0
344 -334 0
-343 -173 0
-344 -174 0
-353 173 343 0
353 -173 0
353 -343 0
-354 174 344 0
354 -174 0
354 -344 0
-353 -183 0
-354 -184 0
-363 183 353 0
363 -183 0
363 -353 0
-364 184 354 0
364 -184 0
364 -354 0
-363 -193 0
-364 -194 0
-373 193 363 0
373 -193 0
373 -363 0
-374 194 364 0
374 -194 0
374 -364 0
-373 -203 0
-374 -204 0
-383 203 373 0
383 -203 0
383 -373 0
-384 204 374 0
384 -204 0
384 -374 0
-383 -213 0
-384 -214 0
-393 213 383 0
393 -213 0
393 -383 0
-394 214 384 0
394 -214 0
394 -384 0
-393 -223 0
-394 -224 0
-403 223 393 0
403 -223 0
403 -393 0
-404 224 394 0
404 -224 0
404 -394 0
-403 -233 0
-404 -234 0
403 0
404 0
1 -145 0
1 -146 0
145 -145 0
146 -146 0
15 -155 0
15 -156 0
155 -155 0
156 -156 0
29 -165 0
29 -166 0
165 -165 0
166 -166 0
43 -175 0
43 -176 0
175 -175 0
176 -176 0
57 -185 0
57 -186 0
185 -185 0
186 -186 0
71 -195 0
71 -196 0
195 -195 0
196 -196 0
85 -205 0
85 -206 0
205 -205 0
206 -206 0
99 -215 0
99 -216 0
215 -215 0
216 -216 0
113 -225 0
113 -226 0
225 -225 0
226 -226 0
127 -235 0
127 -236 0
235 -235 0
236 -236 0
2 -145 0
2 -146 0
145 -145 0
146 -146 0
16 -155 0
16 -156 0
155 -155 0
156 -156 0
30 -165 0
30 -166 0
165 -165 0
166 -166 0
44 -175 0
44 -176 0
175 -175 0
176 -176 0
58 -185 0
58 -186 0
185 -185 0
186 -186 0
72 -195 0
72 -196 0
195 -195 0
196 -196 0
86 -205 0
86 -206 0
205 -205 0
206 -206 0
100 -215 0
100 -216 0
215 -215 0
216 -216 0
114 -225 0
114 -226 0
225 -225 0
226 -226 0
128 -235 0
128 -236 0
235 -235 0
236 -236 0
3 -145 0
3 -146 0
145 -145 0
146 -146 0
17 -155 0
17 -156 0
155 -155 0
156 -156 0
31 -165 0
31 -166 0
165 -165 0
166 -166 0
45 -175 0
45 -176 0
175 -175 0
176 -176 0
59 -185 0
59 -186 0
185 -185 0
186 -186 0
73 -195 0
73 -196 0
195 -195 0
196 -196 0
87 -205 0
87 -206 0
205 -205 0
206 -206 0
101 -215 0
101 -216 0
215 -215 0
216 -216 0
115 -225 0
115 -226 0
225 -225 0
226 -226 0
129 -235 0
129 -236 0
235 -235 0
236 -236 0
4 -251 -145 0
-4 251 -145 0
4 251 -146 0
-4 -251 -146 0
18 -251 -155 0
-18 251 -155 0
18 251 -156 0
-18 -251 -156 0
32 -251 -165 0
-32 251 -165 0
32 251 -166 0
-32 -251 -166 0
46 -251 -175 0
-46 251 -175 0
46 251 -176 0
-46 -251 -176 0
60 -251 -185 0
-60 251 -185 0
60 251 -186 0
-60 -251 -186 0
74 -251 -195 0
-74 251 -195 0
74 251 -196 0
-74 -251 -196 0
88 -251 -205 0
-88 251 -205 0
88 251 -206 0
-88 -251 -206 0
102 -251 -215 0
-102 251 -215 0
102 251 -216 0
-102 -251 -216 0
116 -251 -225 0
-116 251 -225 0
116 251 -226 0
-116 -251 -226 0
130 -251 -235 0
-130 251 -235 0
130 251 -236 0
-130 -251 -236 0
5 -252 -145 0
-5 252 -145 0
5 252 -146 0
-5 -252 -146 0
19 -252 -155 0
-19 252 -155 0
19 252 -156 0
-19 -252 -156 0
33 -252 -165 0
-33 252 -165 0
33 252 -166 0
-33 -252 -166 0
47 -252 -175 0
-47 252 -175 0
47 252 -176 0
-47 -252 -176 0
61 -252 -185 0
-61 252 -185 0
61 252 -186 0
-61 -252 -186 0
75 -252 -195 0
-75 252 -195 0
75 252 -196 0
-75 -252 -196 0
89 -252 -205 0
-89 252 -205 0
89 252 -206 0
-89 -252 -206 0
103 -252 -215 0
-103 252 -215 0
103 252 -216 0
-103 -252 -216 0
117 -252 -225 0
-117 252 -225 0
117 252 -226 0
-117 -252 -226 0
131 -252 -235 0
-131 252 -235 0
131 252 -236 0
-131 -252 -236 0
6 -253 -145 0
-6 253 -145 0
6 253 -146 0
-6 -253 -146 0
20 -253 -155 0
-20 253 -155 0
20 253 -156 0
-20 -253 -156 0
34 -253 -165 0
-34 253 -165 0
34 253 -166 0
-34 -253 -166 0
48 -253 -175 0
-48 253 -175 0
48 253 -176 0
-48 -253 -176 0
62 -253 -185 0
-62 253 -185 0
62 253 -186 0
-62 -253 -186 0
76 -253 -195 0
-76 253 -195 0
76 253 -196 0
-76 -253 -196 0
90 -253 -205 0
-90 253 -205 0
90 253 -206 0
-90 -253 -206 0
104 -253 -215 0
-104 253 -215 0
104 253 -216 0
-104 -253 -216 0
118 -253 -225 0
-118 253 -225 0
118 253 -226 0
-118 -253 -226 0
132 -253 -235 0
-132 253 -235 0
132 253 -236 0
-132 -253 -236 0
7 -254 -145 0
-7 254 -145 0
7 254 -146 0
-7 -254 -146 0
21 -254 -155 0
-21 254 -155 0
21 254 -156 0
-21 -254 -156 0
35 -254 -165 0
-35 254 -165 0
35 254 -166 0
-35 -254 -166 0
49 -254 -175 0
-49 254 -175 0
49 254 -176 0
-49 -254 -176 0
63 -254 -185 0
-63 254 -185 0
63 254 -186 0
-63 -254 -186 0
77 -254 -195 0
-77 254 -195 0
77 254 -196 0
-77 -254 -196 0
91 -254 -205 0
-91 254 -205 0
91 254 -206 0
-91 -254 -206 0
105 -254 -215 0
-105 254 -215 0
105 254 -216 0
-105 -254 -216 0
119 -254 -225 0
-119 254 -225 0
119 254 -226 0
-119 -254 -226 0
133 -254 -235 0
-133 254 -235 0
133 254 -236 0
-133 -254 -236 0
8 -255 -145 0
-8 255 -145 0
8 255 -146 0
-8 -255 -146 0
22 -255 -155 0
-22 255 -155 0
22 255 -156 0
-22 -255 -156 0
36 -255 -165 0
-36 255 -165 0
36 255 -166 0
-36 -255 -166 0
50 -255 -175 0
-50 255 -175 0
50 255 -176 0
-50 -255 -176 0
64 -255 -185 0
-64 255 -185 0
64 255 -186 0
-64 -255 -186 0
78 -255 -195 0
-78 255 -195 0
78 255 -196 0
-78 -255 -196 0
92 -255 -205 0
-92 255 -205 0
92 255 -206 0
-92 -255 -206 0
106 -255 -215 0
-106 255 -215 0
106 255 -216 0
-106 -255 -216 0
120 -255 -225 0
-120 255 -225 0
120 255 -226 0
-120 -255 -226 0
134 -255 -235 0
-134 255 -235 0
134 255 -236 0
-134 -255 -236 0
9 -256 -145 0
-9 256 -145 0
9 256 -146 0
-9 -256 -146 0
23 -256 -155 0
-23 256 -155 0
23 256 -156 0
-23 -256 -156 0
37 -256 -165 0
-37 256 -165 0
37 256 -166 0
-37 -256 -166 0
51 -256 -175 0
-51 256 -175 0
51 256 -176 0
-51 -256 -176 0
65 -256 -185 0
-65 256 -185 0
65 256 -186 0
-65 -256 -186 0
79 -256 -195 0
-79 256 -195 0
79 256 -196 0
-79 -256 -196 0
93 -256 -205 0
-93 256 -205 0
93 256 -206 0
-93 -256 -206 0
107 -256 -215 0
-107 256 -215 0
107 256 -216 0
-107 -256 -216 0
121 -256 -225 0
-121 256 -225 0
121 256 -226 0
-121 -256 -226 0
135 -256 -235 0
-135 256 -235 0
135 256 -236 0
-135 -256 -236 0
-10 -145 0
-10 -146 0
145 -145 0
146 -146 0
-24 -155 0
-24 -156 0
155 -155 0
156 -156 0
-38 -165 0
-38 -166 0
165 -165 0
166 -166 0
-52 -175 0
-52 -176 0
175 -175 0
176 -176 0
-66 -185 0
-66 -186 0
185 -185 0
186 -186 0
-80 -195 0
-80 -196 0
195 -195 0
196 -196 0
-94 -205 0
-94 -206 0
205 -205 0
206 -206 0
-108 -215 0
-108 -216 0
215 -215 0
216 -216 0
-122 -225 0
-122 -226 0
225 -225 0
226 -226 0
-136 -235 0
-136 -236 0
235 -235 0
236 -236 0
11 -145 0
11 -146 0
145 -145 0
146 -146 0
25 -155 0
25 -156 0
155 -155 0
156 -156 0
39 -165 0
39 -166 0
165 -165 0
166 -166 0
53 -175 0
53 -176 0
175 -175 0
176 -176 0
67 -185 0
67 -186 0
185 -185 0
186 -186 0
81 -195 0
81 -196 0
195 -195 0
196 -196 0
95 -205 0
95 -206 0
205 -205 0
206 -206 0
109 -215 0
109 -216 0
215 -215 0
216 -216 0
123 -225 0
123 -226 0
225 -225 0
226 -226 0
137 -235 0
137 -236 0
235 -235 0
236 -236 0
12 -145 0
12 -146 0
145 -145 0
146 -146 0
26 -155 0
26 -156 0
155 -155 0
156 -156 0
40 -165 0
40 -166 0
165 -165 0
166 -166 0
54 -175 0
54 -176 0
175 -175 0
176 -176 0
68 -185 0
68 -186 0
185 -185 0
186 -186 0
82 -195 0
82 -196 0
195 -195 0
196 -196 0
96 -205 0
96 -206 0
205 -205 0
206 -206 0
110 -215 0
110 -216 0
215 -215 0
216 -216 0
124 -225 0
124 -226 0
225 -225 0
226 -226 0
138 -235 0
138 -236 0
235 -235 0
236 -236 0
13 -145 0
13 -146 0
145 -145 0
146 -146 0
27 -155 0
27 -156 0
155 -155 0
156 -156 0
41 -165 0
41 -166 0
165 -165 0
166 -166 0
55 -175 0
55 -176 0
175 -175 0
176 -176 0
69 -185 0
69 -186 0
185 -185 0
186 -186 0
83 -195 0
83 -196 0
195 -195 0
196 -196 0
97 -205 0
97 -206 0
205 -205 0
206 -206 0
111 -215 0
111 -216 0
215 -215 0
216 -216 0
125 -225 0
125 -226 0
225 -225 0
226 -226 0
139 -235 0
139 -236 0
235 -235 0
236 -236 0
-14 -145 0
-14 -146 0
145 -145 0
146 -146 0
-28 -155 0
-28 -156 0
155 -155 0
156 -156 0
-42 -165 0
-42 -166 0
165 -165 0
166 -166 0
-56 -175 0
-56 -176 0
175 -175 0
176 -176 0
-70 -185 0
-70 -186 0
185 -185 0
186 -186 0
-84 -195 0
-84 -196 0
195 -195 0
196 -196 0
-98 -205 0
-98 -206 0
205 -205 0
206 -206 0
-112 -215 0
-112 -216 0
215 -215 0
216 -216 0
-126 -225 0
-126 -226 0
225 -225 0
226 -226 0
-140 -235 0
-140 -236 0
235 -235 0
236 -236 0
-315 145 0
315 -145 0
-316 146 0
315 -146 0
-315 -145 0
-316 -146 0
-325 145 315 0
325 -145 0
325 -315 0
-326 146 316 0
326 -146 0
326 -316 0
-325 -155 0
-326 -156 0
-335 155 325 0
335 -155 0
335 -325 0
-336 156 326 0
336 -156 0
336 -326 0
-335 -165 0
-336 -166 0
-345 165 335 0
345 -165 0
345 -335 0
-346 166 336 0
346 -166 0
346 -336 0
-345 -175 0
-346 -176 0
-355 175 345 0
355 -175 0
355 -345 0
-356 176 346 0
356 -176 0
356 -346 0
-355 -185 0
-356 -186 0
-365 185 355 0
365 -185 0
365 -355 0
-366 186 356 0
366 -186 0
366 -356 0
-365 -195 0
-366 -196 0
-375 195 365 0
375 -195 0
375 -365 0
-376 196 366 0
376 -196 0
376 -366 0
-375 -205 0
-376 -206 0
-385 205 375 0
385 -205 0
385 -375 0
-386 206 376 0
386 -206 0
386 -376 0
-385 -215 0
-386 -216 0
-395 215 385 0
395 -215 0
395 -385 0
-396 216 386 0
396 -216 0
396 -386 0
-395 -225 0
-396 -226 0
-405 225 395 0
405 -225 0
405 -395 0
-406 226 396 0
406 -226 0
406 -396 0
-405 -235 0
-406 -236 0
405 0
406 0
1 -147 0
1 -148 0
147 -147 0
148 -148 0
15 -157 0
15 -158 0
157 -157 0
158 -158 0
29 -167 0
29 -168 0
167 -167 0
168 -168 0
43 -177 0
43 -178 0
177 -177 0
178 -178 0
57 -187 0
57 -188 0
187 -187 0
188 -188 0
71 -197 0
71 -198 0
197 -197 0
198 -198 0
85 -207 0
85 -208 0
207 -207 0
208 -208 0
99 -217 0
99 -218 0
217 -217 0
218 -218 0
113 -227 0
113 -228 0
227 -227 0
228 -228 0
127 -237 0
127 -238 0
237 -237 0
238 -238 0
2 -147 0
2 -148 0
147 -147 0
148 -148 0
16 -157 0
16 -158 0
157 -157 0
158 -158 0
30 -167 0
30 -168 0
167 -167 0
168 -168 0
44 -177 0
44 -178 0
177 -177 0
178 -178 0
58 -187 0
58 -188 0
187 -187 0
188 -188 0
72 -197 0
72 -198 0
197 -197 0
198 -198 0
86 -207 0
86 -208 0
207 -207 0
208 -208 0
100 -217 0
100 -218 0
217 -217 0
218 -218 0
114 -227 0
114 -228 0
227 -227 0
228 -228 0
128 -237 0
128 -238 0
237 -237 0
238 -238 0
3 -147 0
3 -148 0
147 -147 0
148 -148 0
17 -157 0
17 -158 0
157 -157 0
158 -158 0
31 -167 0
31 -168 0
167 -167 0
168 -168 0
45 -177 0
45 -178 0
177 -177 0
178 -178 0
59 -187 0
59 -188 0
187 -187 0
188 -188 0
73 -197 0
73 -198 0
197 -197 0
198 -198 0
87 -207 0
87 -208 0
207 -207 0
208 -208 0
101 -217 0
101 -218 0
217 -217 0
218 -218 0
115 -227 0
115 -228 0
227 -227 0
228 -228 0
129 -237 0
129 -238 0
237 -237 0
238 -238 0
-4 -147 0
-4 -148 0
147 -147 0
148 -148 0
-18 -157 0
-18 -158 0
157 -157 0
158 -158 0
-32 -167 0
-32 -168 0
167 -167 0
168 -168 0
-46 -177 0
-46 -178 0
177 -177 0
178 -178 0
-60 -187 0
-60 -188 0
187 -187 0
188 -188 0
-74 -197 0
-74 -198 0
197 -197 0
198 -198 0
-88 -207 0
-88 -208 0
207 -207 0
208 -208 0
-102 -217 0
-102 -218 0
217 -217 0
218 -218 0
-116 -227 0
-116 -228 0
227 -227 0
228 -228 0
-130 -237 0
-130 -238 0
237 -237 0
238 -238 0
5 -147 0
5 -148 0
147 -147 0
148 -148 0
19 -157 0
19 -158 0
157 -157 0
158 -158 0
33 -167 0
33 -168 0
167 -167 0
168 -168 0
47 -177 0
47 -178 0
177 -177 0
178 -178 0
61 -187 0
61 -188 0
187 -187 0
188 -188 0
75 -197 0
75 -198 0
197 -197 0
198 -198 0
89 -207 0
89 -208 0
207 -207 0
208 -208 0
103 -217 0
103 -218 0
217 -217 0
218 -218 0
117 -227 0
117 -228 0
227 -227 0
228 -228 0
131 -237 0
131 -238 0
237 -237 0
238 -238 0
-6 -147 0
-6 -148 0
147 -147 0
148 -148 0
-20 -157 0
-20 -158 0
157 -157 0
158 -158 0
-34 -167 0
-34 -168 0
167 -167 0
168 -168 0
-48 -177 0
-48 -178 0
177 -177 0
178 -178 0
-62 -187 0
-62 -188 0
187 -187 0
188 -188 0
-76 -197 0
-76 -198 0
197 -197 0
198 -198 0
-90 -207 0
-90 -208 0
207 -207 0
208 -208 0
-104 -217 0
-104 -218 0
217 -217 0
218 -218 0
-118 -227 0
-118 -228 0
227 -227 0
228 -228 0
-132 -237 0
-132 -238 0
237 -237 0
238 -238 0
7 -147 0
7 -148 0
147 -147 0
148 -148 0
21 -157 0
21 -158 0
157 -157 0
158 -158 0
35 -167 0
35 -168 0
167 -167 0
168 -168 0
49 -177 0
49 -178 0
177 -177 0
178 -178 0
63 -187 0
63 -188 0
187 -187 0
188 -188 0
77 -197 0
77 -198 0
197 -197 0
198 -198 0
91 -207 0
91 -208 0
207 -207 0
208 -208 0
105 -217 0
105 -218 0
217 -217 0
218 -218 0
119 -227 0
119 -228 0
227 -227 0
228 -228 0
133 -237 0
133 -238 0
237 -237 0
238 -238 0
8 -257 -147 0
-8 257 -147 0
8 257 -148 0
-8 -257 -148 0
22 -257 -157 0
-22 257 -157 0
22 257 -158 0
-22 -257 -158 0
36 -257 -167 0
-36 257 -167 0
36 257 -168 0
-36 -257 -168 0
50 -257 -177 0
-50 257 -177 0
50 257 -178 0
-50 -257 -178 0
64 -257 -187 0
-64 257 -187 0
64 257 -188 0
-64 -257 -188 0
78 -257 -197 0
-78 257 -197 0
78 257 -198 0
-78 -257 -198 0
92 -257 -207 0
-92 257 -207 0
92 257 -208 0
-92 -257 -208 0
106 -257 -217 0
-106 257 -217 0
106 257 -218 0
-106 -257 -218 0
120 -257 -227 0
-120 257 -227 0
120 257 -228 0
-120 -257 -228 0
134 -257 -237 0
-134 257 -237 0
134 257 -238 0
-134 -257 -238 0
9 -258 -147 0
-9 258 -147 0
9 258 -148 0
-9 -258 -148 0
23 -258 -157 0
-23 258 -157 0
23 258 -158 0
-23 -258 -158 0
37 -258 -167 0
-37 258 -167 0
37 258 -168 0
-37 -258 -168 0
51 -258 -177 0
-51 258 -177 0
51 258 -178 0
-51 -258 -178 0
65 -258 -187 0
-65 258 -187 0
65 258 -188 0
-65 -258 -188 0
79 -258 -197 0
-79 258 -197 0
79 258 -198 0
-79 -258 -198 0
93 -258 -207 0
-93 258 -207 0
93 258 -208 0
-93 -258 -208 0
107 -258 -217 0
-107 258 -217 0
107 258 -218 0
-107 -258 -218 0
121 -258 -227 0
-121 258 -227 0
121 258 -228 0
-121 -258 -228 0
135 -258 -237 0
-135 258 -237 0
135 258 -238 0
-135 -258 -238 0
10 -259 -147 0
-10 259 -147 0
10 259 -148 0
-10 -259 -148 0
24 -259 -157 0
-24 259 -157 0
24 259 -158 0
-24 -259 -158 0
38 -259 -167 0
-38 259 -167 0
38 259 -168 0
-38 -259 -168 0
52 -259 -177 0
-52 259 -177 0
52 259 -178 0
-52 -259 -178 0
66 -259 -187 0
-66 259 -187 0
66 259 -188 0
-66 -259 -188 0
80 -259 -197 0
-80 259 -197 0
80 259 -198 0
-80 -259 -198 0
94 -259 -207 0
-94 259 -207 0
94 259 -208 0
-94 -259 -208 0
108 -259 -217 0
-108 259 -217 0
108 259 -218 0
-108 -259 -218 0
122 -259 -227 0
-122 259 -227 0
122 259 -228 0
-122 -259 -228 0
136 -259 -237 0
-136 259 -237 0
136 259 -238 0
-136 -259 -238 0
11 -260 -147 0
-11 260 -147 0
11 260 -148 0
-11 -260 -148 0
25 -260 -157 0
-25 260 -157 0
25 260 -158 0
-25 -260 -158 0
39 -260 -167 0
-39 260 -167 0
39 260 -168 0
-39 -260 -168 0
53 -260 -177 0
-53 260 -177 0
53 260 -178 0
-53 -260 -178 0
67 -260 -187 0
-67 260 -187 0
67 260 -188 0
-67 -260 -188 0
81 -260 -197 0
-81 260 -197 0
81 260 -198 0
-81 -260 -198 0
95 -260 -207 0
-95 260 -207 0
95 260 -208 0
-95 -260 -208 0
109 -260 -217 0
-109 260 -217 0
109 260 -218 0
-109 -260 -218 0
123 -260 -227 0
-123 260 -227 0
123 260 -228 0
-123 -260 -228 0
137 -260 -237 0
-137 260 -237 0
137 260 -238 0
-137 -260 -238 0
12 -147 0
12 -148 0
147 -147 0
148 -148 0
26 -157 0
26 -158 0
157 -157 0
158 -158 0
40 -167 0
40 -168 0
167 -167 0
168 -168 0
54 -177 0
54 -178 0
177 -177 0
178 -178 0
68 -187 0
68 -188 0
187 -187 0
188 -188 0
82 -197 0
82 -198 0
197 -197 0
198 -198 0
96 -207 0
96 -208 0
207 -207 0
208 -208 0
110 -217 0
110 -218 0
217 -217 0
218 -218 0
124 -227 0
124 -228 0
227 -227 0
228 -228 0
138 -237 0
138 -238 0
237 -237 0
238 -238 0
13 -261 -147 0
-13 261 -147 0
13 261 -148 0
-13 -261 -148 0
27 -261 -157 0
-27 261 -157 0
27 261 -158 0
-27 -261 -158 0
41 -261 -167 0
-41 261 -167 0
41 261 -168 0
-41 -261 -168 0
55 -261 -177 0
-55 261 -177 0
55 261 -178 0
-55 -261 -178 0
69 -261 -187 0
-69 261 -187 0
69 261 -188 0
-69 -261 -188 0
83 -261 -197 0
-83 261 -197 0
83 261 -198 0
-83 -261 -198 0
97 -261 -207 0
-97 261 -207 0
97 261 -208 0
-97 -261 -208 0
111 -261 -217 0
-111 261 -217 0
111 261 -218 0
-111 -261 -218 0
125 -261 -227 0
-125 261 -227 0
125 261 -228 0
-125 -261 -228 0
139 -261 -237 0
-139 261 -237 0
139 261 -238 0
-139 -261 -238 0
14 -147 0
14 -148 0
147 -147 0
148 -148 0
28 -157 0
28 -158 0
157 -157 0
158 -158 0
42 -167 0
42 -168 0
167 -167 0
168 -168 0
56 -177 0
56 -178 0
177 -177 0
178 -178 0
70 -187 0
70 -188 0
187 -187 0
188 -188 0
84 -197 0
84 -198 0
197 -197 0
198 -198 0
98 -207 0
98 -208 0
207 -207 0
208 -208 0
112 -217 0
112 -218 0
217 -217 0
218 -218 0
126 -227 0
126 -228 0
227 -227 0
228 -228 0
140 -237 0
140 -238 0
237 -237 0
238 -238 0
-317 147 0
317 -147 0
-318 148 0
317 -148 0
-317 -147 0
-318 -148 0
-327 147 317 0
327 -147 0
327 -317 0
-328 148 318 0
328 -148 0
328 -318 0
-327 -157 0
-328 -158 0
-337 157 327 0
337 -157 0
337 -327 0
-338 158 328 0
338 -158 0
338 -328 0
-337 -167 0
-338 -168 0
-347 167 337 0
347 -167 0
347 -337 0
-348 168 338 0
348 -168 0
348 -338 0
-347 -177 0
-348 -178 0
-357 177 347 0
357 -177 0
357 -347 0
-358 178 348 0
358 -178 0
358 -348 0
-357 -187 0
-358 -188 0
-367 187 357 0
367 -187 0
367 -357 0
-368 188 358 0
368 -188 0
368 -358 0
-367 -197 0
-368 -198 0
-377 197 367 0
377 -197 0
377 -367 0
-378 198 368 0
378 -198 0
378 -368 0
-377 -207 0
-378 -208 0
-387 207 377 0
387 -207 0
387 -377 0
-388 208 378 0
388 -208 0
388 -378 0
-387 -217 0
-388 -218 0
-397 217 387 0
397 -217 0
397 -387 0
-398 218 388 0
398 -218 0
398 -388 0
-397 -227 0
-398 -228 0
-407 227 397 0
407 -227 0
407 -397 0
-408 228 398 0
408 -228 0
408 -398 0
-407 -237 0
-408 -238 0
407 0
408 0
1 -262 -149 0
-1 262 -149 0
1 262 -150 0
-1 -262 -150 0
15 -262 -159 0
-15 262 -159 0
15 262 -160 0
-15 -262 -160 0
29 -262 -169 0
-29 262 -169 0
29 262 -170 0
-29 -262 -170 0
43 -262 -179 0
-43 262 -179 0
43 262 -180 0
-43 -262 -180 0
57 -262 -189 0
-57 262 -189 0
57 262 -190 0
-57 -262 -190 0
71 -262 -199 0
-71 262 -199 0
71 262 -200 0
-71 -262 -200 0
85 -262 -209 0
-85 262 -209 0
85 262 -210 0
-85 -262 -210 0
99 -262 -219 0
-99 262 -219 0
99 262 -220 0
-99 -262 -220 0
113 -262 -229 0
-113 262 -229 0
113 262 -230 0
-113 -262 -230 0
127 -262 -239 0
-127 262 -239 0
127 262 -240 0
-127 -262 -240 0
2 -149 0
2 -150 0
149 -149 0
150 -150 0
16 -159 0
16 -160 0
159 -159 0
160 -160 0
30 -169 0
30 -170 0
169 -169 0
170 -170 0
44 -179 0
44 -180 0
179 -179 0
180 -180 0
58 -189 0
58 -190 0
189 -189 0
190 -190 0
72 -199 0
72 -200 0
199 -199 0
200 -200 0
86 -209 0
86 -210 0
209 -209 0
210 -210 0
100 -219 0
100 -220 0
219 -219 0
220 -220 0
114 -229 0
114 -230 0
229 -229 0
230 -230 0
128 -239 0
128 -240 0
239 -239 0
240 -240 0
3 -149 0
3 -150 0
149 -149 0
150 -150 0
17 -159 0
17 -160 0
159 -159 0
160 -160 0
31 -169 0
31 -170 0
169 -169 0
170 -170 0
45 -179 0
45 -180 0
179 -179 0
180 -180 0
59 -189 0
59 -190 0
189 -189 0
190 -190 0
73 -199 0
73 -200 0
199 -199 0
200 -200 0
87 -209 0
87 -210 0
209 -209 0
210 -210 0
101 -219 0
101 -220 0
219 -219 0
220 -220 0
115 -229 0
115 -230 0
229 -229 0
230 -230 0
129 -239 0
129 -240 0
239 -239 0
240 -240 0
4 -149 0
4 -150 0
149 -149 0
150 -150 0
18 -159 0
18 -160 0
159 -159 0
160 -160 0
32 -169 0
32 -170 0
169 -169 0
170 -170 0
46 -179 0
46 -180 0
179 -179 0
180 -180 0
60 -189 0
60 -190 0
189 -189 0
190 -190 0
74 -199 0
74 -200 0
199 -199 0
200 -200 0
88 -209 0
88 -210 0
209 -209 0
210 -210 0
102 -219 0
102 -220 0
219 -219 0
220 -220 0
116 -229 0
116 -230 0
229 -229 0
230 -230 0
130 -239 0
130 -240 0
239 -239 0
240 -240 0
5 -263 -149 0
-5 263 -149 0
5 263 -150 0
-5 -263 -150 0
19 -263 -159 0
-19 263 -159 0
19 263 -160 0
-19 -263 -160 0
33 -263 -169 0
-33 263 -169 0
33 263 -170 0
-33 -263 -170 0
47 -263 -179 0
-47 263 -179 0
47 263 -180 0
-47 -263 -180 0
61 -263 -189 0
-61 263 -189 0
61 263 -190 0
-61 -263 -190 0
75 -263 -199 0
-75 263 -199 0
75 263 -200 0
-75 -263 -200 0
89 -263 -209 0
-89 263 -209 0
89 263 -210 0
-89 -263 -210 0
103 -263 -219 0
-103 263 -219 0
103 263 -220 0
-103 -263 -220 0
117 -263 -229 0
-117 263 -229 0
117 263 -230 0
-117 -263 -230 0
131 -263 -239 0
-131 263 -239 0
131 263 -240 0
-131 -263 -240 0
-6 -149 0
-6 -150 0
149 -149 0
150 -150 0
-20 -159 0
-20 -160 0
159 -159 0
160 -160 0
-34 -169 0
-34 -170 0
169 -169 0
170 -170 0
-48 -179 0
-48 -180 0
179 -179 0
180 -180 0
-62 -189 0
-62 -190 0
189 -189 0
190 -190 0
-76 -199 0
-76 -200 0
199 -199 0
200 -200 0
-90 -209 0
-90 -210 0
209 -209 0
210 -210 0
-104 -219 0
-104 -220 0
219 -219 0
220 -220 0
-118 -229 0
-118 -230 0
229 -229 0
230 -230 0
-132 -239 0
-132 -240 0
239 -239 0
240 -240 0
7 -264 -149 0
-7 264 -149 0
7 264 -150 0
-7 -264 -150 0
21 -264 -159 0
-21 264 -159 0
21 264 -160 0
-21 -264 -160 0
35 -264 -169 0
-35 264 -169 0
35 264 -170 0
-35 -264 -170 0
49 -264 -179 0
-49 264 -179 0
49 264 -180 0
-49 -264 -180 0
63 -264 -189 0
-63 264 -189 0
63 264 -190 0
-63 -264 -190 0
77 -264 -199 0
-77 264 -199 0
77 264 -200 0
-77 -264 -200 0
91 -264 -209 0
-91 264 -209 0
91 264 -210 0
-91 -264 -210 0
105 -264 -219 0
-105 264 -219 0
105 264 -220 0
-105 -264 -220 0
119 -264 -229 0
-119 264 -229 0
119 264 -230 0
-119 -264 -230 0
133 -264 -239 0
-133 264 -239 0
133 264 -240 0
-133 -264 -240 0
8 -149 0
8 -150 0
149 -149 0
150 -150 0
22 -159 0
22 -160 0
159 -159 0
160 -160 0
36 -169 0
36 -170 0
169 -169 0
170 -170 0
50 -179 0
50 -180 0
179 -179 0
180 -180 0
64 -189 0
64 -190 0
189 -189 0
190 -190 0
78 -199 0
78 -200 0
199 -199 0
200 -200 0
92 -209 0
92 -210 0
209 -209 0
210 -210 0
106 -219 0
106 -220 0
219 -219 0
220 -220 0
120 -229 0
120 -230 0
229 -229 0
230 -230 0
134 -239 0
134 -240 0
239 -239 0
240 -240 0
9 -265 -149 0
-9 265 -149 0
9 265 -150 0
-9 -265 -150 0
23 -265 -159 0
-23 265 -159 0
23 265 -160 0
-23 -265 -160 0
37 -265 -169 0
-37 265 -169 0
37 265 -170 0
-37 -265 -170 0
51 -265 -179 0
-51 265 -179 0
51 265 -180 0
-51 -265 -180 0
65 -265 -189 0
-65 265 -189 0
65 265 -190 0
-65 -265 -190 0
79 -265 -199 0
-79 265 -199 0
79 265 -200 0
-79 -265 -200 0
93 -265 -209 0
-93 265 -209 0
93 265 -210 0
-93 -265 -210 0
107 -265 -219 0
-107 265 -219 0
107 265 -220 0
-107 -265 -220 0
121 -265 -229 0
-121 265 -229 0
121 265 -230 0
-121 -265 -230 0
135 -265 -239 0
-135 265 -239 0
135 265 -240 0
-135 -265 -240 0
10 -266 -149 0
-10 266 -149 0
10 266 -150 0
-10 -266 -150 0
24 -266 -159 0
-24 266 -159 0
24 266 -160 0
-24 -266 -160 0
38 -266 -169 0
-38 266 -169 0
38 266 -170 0
-38 -266 -170 0
52 -266 -179 0
-52 266 -179 0
52 266 -180 0
-52 -266 -180 0
66 -266 -189 0
-66 266 -189 0
66 266 -190 0
-66 -266 -190 0
80 -266 -199 0
-80 266 -199 0
80 266 -200 0
-80 -266 -200 0
94 -266 -209 0
-94 266 -209 0
94 266 -210 0
-94 -266 -210 0
108 -266 -219 0
-108 266 -219 0
108 266 -220 0
-108 -266 -220 0
122 -266 -229 0
-122 266 -229 0
122 266 -230 0
-122 -266 -230 0
136 -266 -239 0
-136 266 -239 0
136 266 -240 0
-136 -266 -240 0
11 -267 -149 0
-11 267 -149 0
11 267 -150 0
-11 -267 -150 0
25 -267 -159 0
-25 267 -159 0
25 267 -160 0
-25 -267 -160 0
39 -267 -169 0
-39 267 -169 0
39 267 -170 0
-39 -267 -170 0
53 -267 -179 0
-53 267 -179 0
53 267 -180 0
-53 -267 -180 0
67 -267 -189 0
-67 267 -189 0
67 267 -190 0
-67 -267 -190 0
81 -267 -199 0
-81 267 -199 0
81 267 -200 0
-81 -267 -200 0
95 -267 -209 0
-95 267 -209 0
95 267 -210 0
-95 -267 -210 0
109 -267 -219 0
-109 267 -219 0
109 267 -220 0
-109 -267 -220 0
123 -267 -229 0
-123 267 -229 0
123 267 -230 0
-123 -267 -230 0
137 -267 -239 0
-137 267 -239 0
137 267 -240 0
-137 -267 -240 0
12 -149 0
12 -150 0
149 -149 0
150 -150 0
26 -159 0
26 -160 0
159 -159 0
160 -160 0
40 -169 0
40 -170 0
169 -169 0
170 -170 0
54 -179 0
54 -180 0
179 -179 0
180 -180 0
68 -189 0
68 -190 0
189 -189 0
190 -190 0
82 -199 0
82 -200 0
199 -199 0
200 -200 0
96 -209 0
96 -210 0
209 -209 0
210 -210 0
110 -219 0
110 -220 0
219 -219 0
220 -220 0
124 -229 0
124 -230 0
229 -229 0
230 -230 0
138 -239 0
138 -240 0
239 -239 0
240 -240 0
13 -268 -149 0
-13 268 -149 0
13 268 -150 0
-13 -268 -150 0
27 -268 -159 0
-27 268 -159 0
27 268 -160 0
-27 -268 -160 0
41 -268 -169 0
-41 268 -169 0
41 268 -170 0
-41 -268 -170 0
55 -268 -179 0
-55 268 -179 0
55 268 -180 0
-55 -268 -180 0
69 -268 -189 0
-69 268 -189 0
69 268 -190 0
-69 -268 -190 0
83 -268 -199 0
-83 268 -199 0
83 268 -200 0
-83 -268 -200 0
97 -268 -209 0
-97 268 -209 0
97 268 -210 0
-97 -268 -210 0
111 -268 -219 0
-111 268 -219 0
111 268 -220 0
-111 -268 -220 0
125 -268 -229 0
-125 268 -229 0
125 268 -230 0
-125 -268 -230 0
139 -268 -239 0
-139 268 -239 0
139 268 -240 0
-139 -268 -240 0
14 -149 0
14 -150 0
149 -149 0
150 -150 0
28 -159 0
28 -160 0
159 -159 0
160 -160 0
42 -169 0
42 -170 0
169 -169 0
170 -170 0
56 -179 0
56 -180 0
179 -179 0
180 -180 0
70 -189 0
70 -190 0
189 -189 0
190 -190 0
84 -199 0
84 -200 0
199 -199 0
200 -200 0
98 -209 0
98 -210 0
209 -209 0
210 -210 0
112 -219 0
112 -220 0
219 -219 0
220 -220 0
126 -229 0
126 -230 0
229 -229 0
230 -230 0
140 -239 0
140 -240 0
239 -239 0
240 -240 0
-319 149 0
319 -149 0
-320 150 0
319 -150 0
-319 -149 0
-320 -150 0
-329 149 319 0
329 -149 0
329 -319 0
-330 150 320 0
330 -150 0
330 -320 0
-329 -159 0
-330 -160 0
-339 159 329 0
339 -159 0
339 -329 0
-340 160 330 0
340 -160 0
340 -330 0
-339 -169 0
-340 -170 0
-349 169 339 0
349 -169 0
349 -339 0
-350 170 340 0
350 -170 0
350 -340 0
-349 -179 0
-350 -180 0
-359 179 349 0
359 -179 0
359 -349 0
-360 180 350 0
360 -180 0
360 -350 0
-359 -189 0
-360 -190 0
-369 189 359 0
369 -189 0
369 -359 0
-370 190 360 0
370 -190 0
370 -360 0
-369 -199 0
-370 -200 0
-379 199 369 0
379 -199 0
379 -369 0
-380 200 370 0
380 -200 0
380 -370 0
-379 -209 0
-380 -210 0
-389 209 379 0
389 -209 0
389 -379 0
-390 210 380 0
390 -210 0
390 -380 0
-389 -219 0
-390 -220 0
-399 219 389 0
399 -219 0
399 -389 0
-400 220 390 0
400 -220 0
400 -390 0
-399 -229 0
-400 -230 0
-409 229 399 0
409 -229 0
409 -399 0
-410 230 400 0
410 -230 0
410 -400 0
-409 -239 0
-410 -240 0
409 0
410 0
